W=6;
H=6;

MAX_TIME=16;
MAX_TRACKS=10;

TARGET=(6,6);

TRAINS=[(2,1,RIGHT),(4,3,TOP),(2,6,LEFT)];
DECOYS=[];

INIT_POS=[
(2,1,STRAIGHT_RL),
(2,6,STRAIGHT_RL),
(4,3,STRAIGHT_TD),
(6,2,STRAIGHT_RL),
(6,3,STRAIGHT_RL),
(6,4,STRAIGHT_RL),
(6,5,STRAIGHT_RL),
(6,6,STRAIGHT_RL),
];
TUNNEL_PAIRS=[
  (2, 3, RIGHT, 6, 1, RIGHT),
];

GATES=[];
ACTIVATIONS=[];

DSWITCHES=[];

STATIONS=[];
